<instance format="XCSP3" type="COP">
  <variables>
    <array id="x" size="[154]"> 0..153 </array>
  </variables>
  <constraints>
    <group>
      <intension> ne(%0,%1) </intension>
      <args> x[0] x[1] </args>
      <args> x[0] x[3] </args>
      <args> x[0] x[22] </args>
      <args> x[0] x[24] </args>
      <args> x[1] x[2] </args>
      <args> x[1] x[21] </args>
      <args> x[1] x[23] </args>
      <args> x[2] x[5] </args>
      <args> x[2] x[15] </args>
      <args> x[2] x[22] </args>
      <args> x[2] x[26] </args>
      <args> x[2] x[36] </args>
      <args> x[3] x[4] </args>
      <args> x[3] x[15] </args>
      <args> x[3] x[21] </args>
      <args> x[3] x[25] </args>
      <args> x[3] x[36] </args>
      <args> x[4] x[7] </args>
      <args> x[4] x[16] </args>
      <args> x[4] x[24] </args>
      <args> x[4] x[28] </args>
      <args> x[4] x[37] </args>
      <args> x[5] x[6] </args>
      <args> x[5] x[16] </args>
      <args> x[5] x[23] </args>
      <args> x[5] x[27] </args>
      <args> x[5] x[37] </args>
      <args> x[6] x[9] </args>
      <args> x[6] x[17] </args>
      <args> x[6] x[26] </args>
      <args> x[6] x[30] </args>
      <args> x[6] x[38] </args>
      <args> x[7] x[8] </args>
      <args> x[7] x[17] </args>
      <args> x[7] x[25] </args>
      <args> x[7] x[29] </args>
      <args> x[7] x[38] </args>
      <args> x[8] x[11] </args>
      <args> x[8] x[18] </args>
      <args> x[8] x[28] </args>
      <args> x[8] x[32] </args>
      <args> x[8] x[39] </args>
      <args> x[9] x[10] </args>
      <args> x[9] x[18] </args>
      <args> x[9] x[27] </args>
      <args> x[9] x[31] </args>
      <args> x[9] x[39] </args>
      <args> x[10] x[13] </args>
      <args> x[10] x[19] </args>
      <args> x[10] x[30] </args>
      <args> x[10] x[34] </args>
      <args> x[10] x[40] </args>
      <args> x[11] x[12] </args>
      <args> x[11] x[19] </args>
      <args> x[11] x[29] </args>
      <args> x[11] x[33] </args>
      <args> x[11] x[40] </args>
      <args> x[12] x[14] </args>
      <args> x[12] x[20] </args>
      <args> x[12] x[32] </args>
      <args> x[12] x[35] </args>
      <args> x[12] x[41] </args>
      <args> x[13] x[14] </args>
      <args> x[13] x[20] </args>
      <args> x[13] x[31] </args>
      <args> x[13] x[35] </args>
      <args> x[13] x[41] </args>
      <args> x[14] x[15] </args>
      <args> x[14] x[16] </args>
      <args> x[14] x[17] </args>
      <args> x[14] x[18] </args>
      <args> x[14] x[19] </args>
      <args> x[14] x[20] </args>
      <args> x[14] x[33] </args>
      <args> x[14] x[34] </args>
      <args> x[14] x[36] </args>
      <args> x[14] x[37] </args>
      <args> x[14] x[38] </args>
      <args> x[14] x[39] </args>
      <args> x[14] x[40] </args>
      <args> x[14] x[41] </args>
      <args> x[15] x[16] </args>
      <args> x[15] x[17] </args>
      <args> x[15] x[18] </args>
      <args> x[15] x[19] </args>
      <args> x[15] x[20] </args>
      <args> x[15] x[23] </args>
      <args> x[15] x[24] </args>
      <args> x[15] x[35] </args>
      <args> x[15] x[37] </args>
      <args> x[15] x[38] </args>
      <args> x[15] x[39] </args>
      <args> x[15] x[40] </args>
      <args> x[15] x[41] </args>
      <args> x[16] x[17] </args>
      <args> x[16] x[18] </args>
      <args> x[16] x[19] </args>
      <args> x[16] x[20] </args>
      <args> x[16] x[25] </args>
      <args> x[16] x[26] </args>
      <args> x[16] x[35] </args>
      <args> x[16] x[36] </args>
      <args> x[16] x[38] </args>
      <args> x[16] x[39] </args>
      <args> x[16] x[40] </args>
      <args> x[16] x[41] </args>
      <args> x[17] x[18] </args>
      <args> x[17] x[19] </args>
      <args> x[17] x[20] </args>
      <args> x[17] x[27] </args>
      <args> x[17] x[28] </args>
      <args> x[17] x[35] </args>
      <args> x[17] x[36] </args>
      <args> x[17] x[37] </args>
      <args> x[17] x[39] </args>
      <args> x[17] x[40] </args>
      <args> x[17] x[41] </args>
      <args> x[18] x[19] </args>
      <args> x[18] x[20] </args>
      <args> x[18] x[29] </args>
      <args> x[18] x[30] </args>
      <args> x[18] x[35] </args>
      <args> x[18] x[36] </args>
      <args> x[18] x[37] </args>
      <args> x[18] x[38] </args>
      <args> x[18] x[40] </args>
      <args> x[18] x[41] </args>
      <args> x[19] x[20] </args>
      <args> x[19] x[31] </args>
      <args> x[19] x[32] </args>
      <args> x[19] x[35] </args>
      <args> x[19] x[36] </args>
      <args> x[19] x[37] </args>
      <args> x[19] x[38] </args>
      <args> x[19] x[39] </args>
      <args> x[19] x[41] </args>
      <args> x[20] x[33] </args>
      <args> x[20] x[34] </args>
      <args> x[20] x[35] </args>
      <args> x[20] x[36] </args>
      <args> x[20] x[37] </args>
      <args> x[20] x[38] </args>
      <args> x[20] x[39] </args>
      <args> x[20] x[40] </args>
      <args> x[21] x[43] </args>
      <args> x[21] x[45] </args>
      <args> x[21] x[148] </args>
      <args> x[22] x[42] </args>
      <args> x[22] x[44] </args>
      <args> x[22] x[148] </args>
      <args> x[23] x[43] </args>
      <args> x[23] x[47] </args>
      <args> x[23] x[57] </args>
      <args> x[23] x[148] </args>
      <args> x[24] x[42] </args>
      <args> x[24] x[46] </args>
      <args> x[24] x[57] </args>
      <args> x[24] x[148] </args>
      <args> x[25] x[45] </args>
      <args> x[25] x[49] </args>
      <args> x[25] x[58] </args>
      <args> x[25] x[148] </args>
      <args> x[26] x[44] </args>
      <args> x[26] x[48] </args>
      <args> x[26] x[58] </args>
      <args> x[26] x[148] </args>
      <args> x[27] x[47] </args>
      <args> x[27] x[51] </args>
      <args> x[27] x[59] </args>
      <args> x[27] x[148] </args>
      <args> x[28] x[46] </args>
      <args> x[28] x[50] </args>
      <args> x[28] x[59] </args>
      <args> x[28] x[148] </args>
      <args> x[29] x[49] </args>
      <args> x[29] x[53] </args>
      <args> x[29] x[60] </args>
      <args> x[29] x[148] </args>
      <args> x[30] x[48] </args>
      <args> x[30] x[52] </args>
      <args> x[30] x[60] </args>
      <args> x[30] x[148] </args>
      <args> x[31] x[51] </args>
      <args> x[31] x[55] </args>
      <args> x[31] x[61] </args>
      <args> x[31] x[148] </args>
      <args> x[32] x[50] </args>
      <args> x[32] x[54] </args>
      <args> x[32] x[61] </args>
      <args> x[32] x[148] </args>
      <args> x[33] x[53] </args>
      <args> x[33] x[56] </args>
      <args> x[33] x[62] </args>
      <args> x[33] x[148] </args>
      <args> x[34] x[52] </args>
      <args> x[34] x[56] </args>
      <args> x[34] x[62] </args>
      <args> x[34] x[148] </args>
      <args> x[35] x[54] </args>
      <args> x[35] x[55] </args>
      <args> x[35] x[57] </args>
      <args> x[35] x[58] </args>
      <args> x[35] x[59] </args>
      <args> x[35] x[60] </args>
      <args> x[35] x[61] </args>
      <args> x[35] x[62] </args>
      <args> x[35] x[148] </args>
      <args> x[36] x[44] </args>
      <args> x[36] x[45] </args>
      <args> x[36] x[56] </args>
      <args> x[36] x[58] </args>
      <args> x[36] x[59] </args>
      <args> x[36] x[60] </args>
      <args> x[36] x[61] </args>
      <args> x[36] x[62] </args>
      <args> x[36] x[148] </args>
      <args> x[37] x[46] </args>
      <args> x[37] x[47] </args>
      <args> x[37] x[56] </args>
      <args> x[37] x[57] </args>
      <args> x[37] x[59] </args>
      <args> x[37] x[60] </args>
      <args> x[37] x[61] </args>
      <args> x[37] x[62] </args>
      <args> x[37] x[148] </args>
      <args> x[38] x[48] </args>
      <args> x[38] x[49] </args>
      <args> x[38] x[56] </args>
      <args> x[38] x[57] </args>
      <args> x[38] x[58] </args>
      <args> x[38] x[60] </args>
      <args> x[38] x[61] </args>
      <args> x[38] x[62] </args>
      <args> x[38] x[148] </args>
      <args> x[39] x[50] </args>
      <args> x[39] x[51] </args>
      <args> x[39] x[56] </args>
      <args> x[39] x[57] </args>
      <args> x[39] x[58] </args>
      <args> x[39] x[59] </args>
      <args> x[39] x[61] </args>
      <args> x[39] x[62] </args>
      <args> x[39] x[148] </args>
      <args> x[40] x[52] </args>
      <args> x[40] x[53] </args>
      <args> x[40] x[56] </args>
      <args> x[40] x[57] </args>
      <args> x[40] x[58] </args>
      <args> x[40] x[59] </args>
      <args> x[40] x[60] </args>
      <args> x[40] x[62] </args>
      <args> x[40] x[148] </args>
      <args> x[41] x[54] </args>
      <args> x[41] x[55] </args>
      <args> x[41] x[56] </args>
      <args> x[41] x[57] </args>
      <args> x[41] x[58] </args>
      <args> x[41] x[59] </args>
      <args> x[41] x[60] </args>
      <args> x[41] x[61] </args>
      <args> x[41] x[148] </args>
      <args> x[42] x[64] </args>
      <args> x[42] x[66] </args>
      <args> x[42] x[149] </args>
      <args> x[43] x[63] </args>
      <args> x[43] x[65] </args>
      <args> x[43] x[149] </args>
      <args> x[44] x[64] </args>
      <args> x[44] x[68] </args>
      <args> x[44] x[78] </args>
      <args> x[44] x[149] </args>
      <args> x[45] x[63] </args>
      <args> x[45] x[67] </args>
      <args> x[45] x[78] </args>
      <args> x[45] x[149] </args>
      <args> x[46] x[66] </args>
      <args> x[46] x[70] </args>
      <args> x[46] x[79] </args>
      <args> x[46] x[149] </args>
      <args> x[47] x[65] </args>
      <args> x[47] x[69] </args>
      <args> x[47] x[79] </args>
      <args> x[47] x[149] </args>
      <args> x[48] x[68] </args>
      <args> x[48] x[72] </args>
      <args> x[48] x[80] </args>
      <args> x[48] x[149] </args>
      <args> x[49] x[67] </args>
      <args> x[49] x[71] </args>
      <args> x[49] x[80] </args>
      <args> x[49] x[149] </args>
      <args> x[50] x[70] </args>
      <args> x[50] x[74] </args>
      <args> x[50] x[81] </args>
      <args> x[50] x[149] </args>
      <args> x[51] x[69] </args>
      <args> x[51] x[73] </args>
      <args> x[51] x[81] </args>
      <args> x[51] x[149] </args>
      <args> x[52] x[72] </args>
      <args> x[52] x[76] </args>
      <args> x[52] x[82] </args>
      <args> x[52] x[149] </args>
      <args> x[53] x[71] </args>
      <args> x[53] x[75] </args>
      <args> x[53] x[82] </args>
      <args> x[53] x[149] </args>
      <args> x[54] x[74] </args>
      <args> x[54] x[77] </args>
      <args> x[54] x[83] </args>
      <args> x[54] x[149] </args>
      <args> x[55] x[73] </args>
      <args> x[55] x[77] </args>
      <args> x[55] x[83] </args>
      <args> x[55] x[149] </args>
      <args> x[56] x[75] </args>
      <args> x[56] x[76] </args>
      <args> x[56] x[78] </args>
      <args> x[56] x[79] </args>
      <args> x[56] x[80] </args>
      <args> x[56] x[81] </args>
      <args> x[56] x[82] </args>
      <args> x[56] x[83] </args>
      <args> x[56] x[149] </args>
      <args> x[57] x[65] </args>
      <args> x[57] x[66] </args>
      <args> x[57] x[77] </args>
      <args> x[57] x[79] </args>
      <args> x[57] x[80] </args>
      <args> x[57] x[81] </args>
      <args> x[57] x[82] </args>
      <args> x[57] x[83] </args>
      <args> x[57] x[149] </args>
      <args> x[58] x[67] </args>
      <args> x[58] x[68] </args>
      <args> x[58] x[77] </args>
      <args> x[58] x[78] </args>
      <args> x[58] x[80] </args>
      <args> x[58] x[81] </args>
      <args> x[58] x[82] </args>
      <args> x[58] x[83] </args>
      <args> x[58] x[149] </args>
      <args> x[59] x[69] </args>
      <args> x[59] x[70] </args>
      <args> x[59] x[77] </args>
      <args> x[59] x[78] </args>
      <args> x[59] x[79] </args>
      <args> x[59] x[81] </args>
      <args> x[59] x[82] </args>
      <args> x[59] x[83] </args>
      <args> x[59] x[149] </args>
      <args> x[60] x[71] </args>
      <args> x[60] x[72] </args>
      <args> x[60] x[77] </args>
      <args> x[60] x[78] </args>
      <args> x[60] x[79] </args>
      <args> x[60] x[80] </args>
      <args> x[60] x[82] </args>
      <args> x[60] x[83] </args>
      <args> x[60] x[149] </args>
      <args> x[61] x[73] </args>
      <args> x[61] x[74] </args>
      <args> x[61] x[77] </args>
      <args> x[61] x[78] </args>
      <args> x[61] x[79] </args>
      <args> x[61] x[80] </args>
      <args> x[61] x[81] </args>
      <args> x[61] x[83] </args>
      <args> x[61] x[149] </args>
      <args> x[62] x[75] </args>
      <args> x[62] x[76] </args>
      <args> x[62] x[77] </args>
      <args> x[62] x[78] </args>
      <args> x[62] x[79] </args>
      <args> x[62] x[80] </args>
      <args> x[62] x[81] </args>
      <args> x[62] x[82] </args>
      <args> x[62] x[149] </args>
      <args> x[63] x[85] </args>
      <args> x[63] x[87] </args>
      <args> x[63] x[150] </args>
      <args> x[64] x[84] </args>
      <args> x[64] x[86] </args>
      <args> x[64] x[150] </args>
      <args> x[65] x[85] </args>
      <args> x[65] x[89] </args>
      <args> x[65] x[99] </args>
      <args> x[65] x[150] </args>
      <args> x[66] x[84] </args>
      <args> x[66] x[88] </args>
      <args> x[66] x[99] </args>
      <args> x[66] x[150] </args>
      <args> x[67] x[87] </args>
      <args> x[67] x[91] </args>
      <args> x[67] x[100] </args>
      <args> x[67] x[150] </args>
      <args> x[68] x[86] </args>
      <args> x[68] x[90] </args>
      <args> x[68] x[100] </args>
      <args> x[68] x[150] </args>
      <args> x[69] x[89] </args>
      <args> x[69] x[93] </args>
      <args> x[69] x[101] </args>
      <args> x[69] x[150] </args>
      <args> x[70] x[88] </args>
      <args> x[70] x[92] </args>
      <args> x[70] x[101] </args>
      <args> x[70] x[150] </args>
      <args> x[71] x[91] </args>
      <args> x[71] x[95] </args>
      <args> x[71] x[102] </args>
      <args> x[71] x[150] </args>
      <args> x[72] x[90] </args>
      <args> x[72] x[94] </args>
      <args> x[72] x[102] </args>
      <args> x[72] x[150] </args>
      <args> x[73] x[93] </args>
      <args> x[73] x[97] </args>
      <args> x[73] x[103] </args>
      <args> x[73] x[150] </args>
      <args> x[74] x[92] </args>
      <args> x[74] x[96] </args>
      <args> x[74] x[103] </args>
      <args> x[74] x[150] </args>
      <args> x[75] x[95] </args>
      <args> x[75] x[98] </args>
      <args> x[75] x[104] </args>
      <args> x[75] x[150] </args>
      <args> x[76] x[94] </args>
      <args> x[76] x[98] </args>
      <args> x[76] x[104] </args>
      <args> x[76] x[150] </args>
      <args> x[77] x[96] </args>
      <args> x[77] x[97] </args>
      <args> x[77] x[99] </args>
      <args> x[77] x[100] </args>
      <args> x[77] x[101] </args>
      <args> x[77] x[102] </args>
      <args> x[77] x[103] </args>
      <args> x[77] x[104] </args>
      <args> x[77] x[150] </args>
      <args> x[78] x[86] </args>
      <args> x[78] x[87] </args>
      <args> x[78] x[98] </args>
      <args> x[78] x[100] </args>
      <args> x[78] x[101] </args>
      <args> x[78] x[102] </args>
      <args> x[78] x[103] </args>
      <args> x[78] x[104] </args>
      <args> x[78] x[150] </args>
      <args> x[79] x[88] </args>
      <args> x[79] x[89] </args>
      <args> x[79] x[98] </args>
      <args> x[79] x[99] </args>
      <args> x[79] x[101] </args>
      <args> x[79] x[102] </args>
      <args> x[79] x[103] </args>
      <args> x[79] x[104] </args>
      <args> x[79] x[150] </args>
      <args> x[80] x[90] </args>
      <args> x[80] x[91] </args>
      <args> x[80] x[98] </args>
      <args> x[80] x[99] </args>
      <args> x[80] x[100] </args>
      <args> x[80] x[102] </args>
      <args> x[80] x[103] </args>
      <args> x[80] x[104] </args>
      <args> x[80] x[150] </args>
      <args> x[81] x[92] </args>
      <args> x[81] x[93] </args>
      <args> x[81] x[98] </args>
      <args> x[81] x[99] </args>
      <args> x[81] x[100] </args>
      <args> x[81] x[101] </args>
      <args> x[81] x[103] </args>
      <args> x[81] x[104] </args>
      <args> x[81] x[150] </args>
      <args> x[82] x[94] </args>
      <args> x[82] x[95] </args>
      <args> x[82] x[98] </args>
      <args> x[82] x[99] </args>
      <args> x[82] x[100] </args>
      <args> x[82] x[101] </args>
      <args> x[82] x[102] </args>
      <args> x[82] x[104] </args>
      <args> x[82] x[150] </args>
      <args> x[83] x[96] </args>
      <args> x[83] x[97] </args>
      <args> x[83] x[98] </args>
      <args> x[83] x[99] </args>
      <args> x[83] x[100] </args>
      <args> x[83] x[101] </args>
      <args> x[83] x[102] </args>
      <args> x[83] x[103] </args>
      <args> x[83] x[150] </args>
      <args> x[84] x[106] </args>
      <args> x[84] x[108] </args>
      <args> x[84] x[151] </args>
      <args> x[85] x[105] </args>
      <args> x[85] x[107] </args>
      <args> x[85] x[151] </args>
      <args> x[86] x[106] </args>
      <args> x[86] x[110] </args>
      <args> x[86] x[120] </args>
      <args> x[86] x[151] </args>
      <args> x[87] x[105] </args>
      <args> x[87] x[109] </args>
      <args> x[87] x[120] </args>
      <args> x[87] x[151] </args>
      <args> x[88] x[108] </args>
      <args> x[88] x[112] </args>
      <args> x[88] x[121] </args>
      <args> x[88] x[151] </args>
      <args> x[89] x[107] </args>
      <args> x[89] x[111] </args>
      <args> x[89] x[121] </args>
      <args> x[89] x[151] </args>
      <args> x[90] x[110] </args>
      <args> x[90] x[114] </args>
      <args> x[90] x[122] </args>
      <args> x[90] x[151] </args>
      <args> x[91] x[109] </args>
      <args> x[91] x[113] </args>
      <args> x[91] x[122] </args>
      <args> x[91] x[151] </args>
      <args> x[92] x[112] </args>
      <args> x[92] x[116] </args>
      <args> x[92] x[123] </args>
      <args> x[92] x[151] </args>
      <args> x[93] x[111] </args>
      <args> x[93] x[115] </args>
      <args> x[93] x[123] </args>
      <args> x[93] x[151] </args>
      <args> x[94] x[114] </args>
      <args> x[94] x[118] </args>
      <args> x[94] x[124] </args>
      <args> x[94] x[151] </args>
      <args> x[95] x[113] </args>
      <args> x[95] x[117] </args>
      <args> x[95] x[124] </args>
      <args> x[95] x[151] </args>
      <args> x[96] x[116] </args>
      <args> x[96] x[119] </args>
      <args> x[96] x[125] </args>
      <args> x[96] x[151] </args>
      <args> x[97] x[115] </args>
      <args> x[97] x[119] </args>
      <args> x[97] x[125] </args>
      <args> x[97] x[151] </args>
      <args> x[98] x[117] </args>
      <args> x[98] x[118] </args>
      <args> x[98] x[120] </args>
      <args> x[98] x[121] </args>
      <args> x[98] x[122] </args>
      <args> x[98] x[123] </args>
      <args> x[98] x[124] </args>
      <args> x[98] x[125] </args>
      <args> x[98] x[151] </args>
      <args> x[99] x[107] </args>
      <args> x[99] x[108] </args>
      <args> x[99] x[119] </args>
      <args> x[99] x[121] </args>
      <args> x[99] x[122] </args>
      <args> x[99] x[123] </args>
      <args> x[99] x[124] </args>
      <args> x[99] x[125] </args>
      <args> x[99] x[151] </args>
      <args> x[100] x[109] </args>
      <args> x[100] x[110] </args>
      <args> x[100] x[119] </args>
      <args> x[100] x[120] </args>
      <args> x[100] x[122] </args>
      <args> x[100] x[123] </args>
      <args> x[100] x[124] </args>
      <args> x[100] x[125] </args>
      <args> x[100] x[151] </args>
      <args> x[101] x[111] </args>
      <args> x[101] x[112] </args>
      <args> x[101] x[119] </args>
      <args> x[101] x[120] </args>
      <args> x[101] x[121] </args>
      <args> x[101] x[123] </args>
      <args> x[101] x[124] </args>
      <args> x[101] x[125] </args>
      <args> x[101] x[151] </args>
      <args> x[102] x[113] </args>
      <args> x[102] x[114] </args>
      <args> x[102] x[119] </args>
      <args> x[102] x[120] </args>
      <args> x[102] x[121] </args>
      <args> x[102] x[122] </args>
      <args> x[102] x[124] </args>
      <args> x[102] x[125] </args>
      <args> x[102] x[151] </args>
      <args> x[103] x[115] </args>
      <args> x[103] x[116] </args>
      <args> x[103] x[119] </args>
      <args> x[103] x[120] </args>
      <args> x[103] x[121] </args>
      <args> x[103] x[122] </args>
      <args> x[103] x[123] </args>
      <args> x[103] x[125] </args>
      <args> x[103] x[151] </args>
      <args> x[104] x[117] </args>
      <args> x[104] x[118] </args>
      <args> x[104] x[119] </args>
      <args> x[104] x[120] </args>
      <args> x[104] x[121] </args>
      <args> x[104] x[122] </args>
      <args> x[104] x[123] </args>
      <args> x[104] x[124] </args>
      <args> x[104] x[151] </args>
      <args> x[105] x[127] </args>
      <args> x[105] x[129] </args>
      <args> x[105] x[152] </args>
      <args> x[106] x[126] </args>
      <args> x[106] x[128] </args>
      <args> x[106] x[152] </args>
      <args> x[107] x[127] </args>
      <args> x[107] x[131] </args>
      <args> x[107] x[141] </args>
      <args> x[107] x[152] </args>
      <args> x[108] x[126] </args>
      <args> x[108] x[130] </args>
      <args> x[108] x[141] </args>
      <args> x[108] x[152] </args>
      <args> x[109] x[129] </args>
      <args> x[109] x[133] </args>
      <args> x[109] x[142] </args>
      <args> x[109] x[152] </args>
      <args> x[110] x[128] </args>
      <args> x[110] x[132] </args>
      <args> x[110] x[142] </args>
      <args> x[110] x[152] </args>
      <args> x[111] x[131] </args>
      <args> x[111] x[135] </args>
      <args> x[111] x[143] </args>
      <args> x[111] x[152] </args>
      <args> x[112] x[130] </args>
      <args> x[112] x[134] </args>
      <args> x[112] x[143] </args>
      <args> x[112] x[152] </args>
      <args> x[113] x[133] </args>
      <args> x[113] x[137] </args>
      <args> x[113] x[144] </args>
      <args> x[113] x[152] </args>
      <args> x[114] x[132] </args>
      <args> x[114] x[136] </args>
      <args> x[114] x[144] </args>
      <args> x[114] x[152] </args>
      <args> x[115] x[135] </args>
      <args> x[115] x[139] </args>
      <args> x[115] x[145] </args>
      <args> x[115] x[152] </args>
      <args> x[116] x[134] </args>
      <args> x[116] x[138] </args>
      <args> x[116] x[145] </args>
      <args> x[116] x[152] </args>
      <args> x[117] x[137] </args>
      <args> x[117] x[140] </args>
      <args> x[117] x[146] </args>
      <args> x[117] x[152] </args>
      <args> x[118] x[136] </args>
      <args> x[118] x[140] </args>
      <args> x[118] x[146] </args>
      <args> x[118] x[152] </args>
      <args> x[119] x[138] </args>
      <args> x[119] x[139] </args>
      <args> x[119] x[141] </args>
      <args> x[119] x[142] </args>
      <args> x[119] x[143] </args>
      <args> x[119] x[144] </args>
      <args> x[119] x[145] </args>
      <args> x[119] x[146] </args>
      <args> x[119] x[152] </args>
      <args> x[120] x[128] </args>
      <args> x[120] x[129] </args>
      <args> x[120] x[140] </args>
      <args> x[120] x[142] </args>
      <args> x[120] x[143] </args>
      <args> x[120] x[144] </args>
      <args> x[120] x[145] </args>
      <args> x[120] x[146] </args>
      <args> x[120] x[152] </args>
      <args> x[121] x[130] </args>
      <args> x[121] x[131] </args>
      <args> x[121] x[140] </args>
      <args> x[121] x[141] </args>
      <args> x[121] x[143] </args>
      <args> x[121] x[144] </args>
      <args> x[121] x[145] </args>
      <args> x[121] x[146] </args>
      <args> x[121] x[152] </args>
      <args> x[122] x[132] </args>
      <args> x[122] x[133] </args>
      <args> x[122] x[140] </args>
      <args> x[122] x[141] </args>
      <args> x[122] x[142] </args>
      <args> x[122] x[144] </args>
      <args> x[122] x[145] </args>
      <args> x[122] x[146] </args>
      <args> x[122] x[152] </args>
      <args> x[123] x[134] </args>
      <args> x[123] x[135] </args>
      <args> x[123] x[140] </args>
      <args> x[123] x[141] </args>
      <args> x[123] x[142] </args>
      <args> x[123] x[143] </args>
      <args> x[123] x[145] </args>
      <args> x[123] x[146] </args>
      <args> x[123] x[152] </args>
      <args> x[124] x[136] </args>
      <args> x[124] x[137] </args>
      <args> x[124] x[140] </args>
      <args> x[124] x[141] </args>
      <args> x[124] x[142] </args>
      <args> x[124] x[143] </args>
      <args> x[124] x[144] </args>
      <args> x[124] x[146] </args>
      <args> x[124] x[152] </args>
      <args> x[125] x[138] </args>
      <args> x[125] x[139] </args>
      <args> x[125] x[140] </args>
      <args> x[125] x[141] </args>
      <args> x[125] x[142] </args>
      <args> x[125] x[143] </args>
      <args> x[125] x[144] </args>
      <args> x[125] x[145] </args>
      <args> x[125] x[152] </args>
      <args> x[126] x[147] </args>
      <args> x[126] x[153] </args>
      <args> x[127] x[147] </args>
      <args> x[127] x[153] </args>
      <args> x[128] x[147] </args>
      <args> x[128] x[153] </args>
      <args> x[129] x[147] </args>
      <args> x[129] x[153] </args>
      <args> x[130] x[147] </args>
      <args> x[130] x[153] </args>
      <args> x[131] x[147] </args>
      <args> x[131] x[153] </args>
      <args> x[132] x[147] </args>
      <args> x[132] x[153] </args>
      <args> x[133] x[147] </args>
      <args> x[133] x[153] </args>
      <args> x[134] x[147] </args>
      <args> x[134] x[153] </args>
      <args> x[135] x[147] </args>
      <args> x[135] x[153] </args>
      <args> x[136] x[147] </args>
      <args> x[136] x[153] </args>
      <args> x[137] x[147] </args>
      <args> x[137] x[153] </args>
      <args> x[138] x[147] </args>
      <args> x[138] x[153] </args>
      <args> x[139] x[147] </args>
      <args> x[139] x[153] </args>
      <args> x[140] x[147] </args>
      <args> x[140] x[153] </args>
      <args> x[141] x[147] </args>
      <args> x[141] x[153] </args>
      <args> x[142] x[147] </args>
      <args> x[142] x[153] </args>
      <args> x[143] x[147] </args>
      <args> x[143] x[153] </args>
      <args> x[144] x[147] </args>
      <args> x[144] x[153] </args>
      <args> x[145] x[147] </args>
      <args> x[145] x[153] </args>
      <args> x[146] x[147] </args>
      <args> x[146] x[153] </args>
      <args> x[147] x[148] </args>
      <args> x[147] x[149] </args>
      <args> x[147] x[150] </args>
      <args> x[147] x[151] </args>
      <args> x[147] x[152] </args>
      <args> x[147] x[153] </args>
      <args> x[148] x[149] </args>
      <args> x[148] x[150] </args>
      <args> x[148] x[151] </args>
      <args> x[148] x[152] </args>
      <args> x[148] x[153] </args>
      <args> x[149] x[150] </args>
      <args> x[149] x[151] </args>
      <args> x[149] x[152] </args>
      <args> x[149] x[153] </args>
      <args> x[150] x[151] </args>
      <args> x[150] x[152] </args>
      <args> x[150] x[153] </args>
      <args> x[151] x[152] </args>
      <args> x[151] x[153] </args>
      <args> x[152] x[153] </args>
    </group>
  </constraints>
  <objectives>
    <minimize type="maximum"> x[] </minimize>
  </objectives>
</instance>
